p edge 30 52 5
v 4 5 13 14 26
v 5 4 20 24 28 29
v 5 3 12 15 19 22
v 6 2 7 8 16 18 21
v 10 1 6 9 10 11 17 23 25 27 30
e 1 7
e 1 15
e 1 19
e 1 21
e 2 10
e 2 20
e 2 21
e 3 9
e 3 19
e 4 11
e 5 28
e 6 11
e 6 16
e 6 19
e 6 20
e 7 18
e 7 20
e 7 21
e 7 24
e 7 28
e 8 10
e 8 14
e 8 17
e 8 30
e 10 14
e 10 24
e 10 27
e 11 16
e 11 25
e 12 15
e 12 18
e 12 21
e 13 20
e 13 22
e 14 16
e 15 19
e 15 29
e 16 20
e 16 21
e 16 25
e 16 26
e 16 27
e 17 23
e 18 26
e 19 27
e 21 24
e 21 28
e 22 24
e 23 25
e 24 30
e 26 27
e 29 30
